NAME : instances/clustered-mixed-tsp/instance-32.tsp
COMMENT : No Comment
TYPE : TSP
DIMENSION: 41
EDGE_WEIGHT_TYPE : EUC_2D
NODE_COORD_SECTION
1 220 415 
2 156 1009 
3 884 1017 
4 -152 631 
5 32 79 
6 363 517 
7 832 885 
8 220 247 
9 208 549 
10 228 59 
11 -164 815 
12 172 1025 
13 -60 211 
14 52 263 
15 844 721 
16 587 309 
17 604 442 
18 1012 654 
19 1007 1005 
20 80 829 
21 140 921 
22 -12 -117 
23 607 977 
24 1012 945 
25 440 801 
26 676 734 
27 560 582 
28 883 838 
29 947 765 
30 92 715 
31 787 678 
32 -36 919 
33 196 207 
34 1172 801 
35 108 817 
36 863 962 
37 80 783 
38 68 597 
39 108 459 
40 192 183 
41 619 301 
EOF
